data0:avg_stress_zz
12395.5
19491.9
15782.2
17862.6
14810.1
